(declare-fun v5 () (_ BitVec 1))
(declare-fun a75 () (Array (_ BitVec 1) (_ BitVec 2)))
(assert
(let (($e14 (_ bv96 16)))
(let (($e26 (_ bv2 2)))
(let (($e212 ((_ extract 6 5) $e14 )))
(let (($e215 (store a75 true        $e26 )))
(let (($e216 (store $e215 v5    $e212)))
(let (($e217 (select $e216 true       )))
             (   extract      $e217)
                                                                                                                                                                                                                                                                                                                                                                                                                                                                                                                                 )))  )                                                                                                                                                                         )           )             )
